120 150

49
53
51
56
59
60
50
49
51
40
56
47
59
50
50
47
49
52
51
45
43
53
46
41
60
58
51
55
54
41
52
58
44
53
53
43
53
58
54
50
49
41
56
41
51
45
48
51
44
42
52
59
54
48
54
51
51
52
45
47
43
51
58
58
52
46
47
57
55
55
59
50
40
50
53
49
51
52
41
40
53
51
50
47
52
45
47
56
51
50
40
43
59
53
53
50
54
41
54
44
49
48
46
47
60
53
56
57
50
53
41
56
58
42
46
41
46
43
41
59